NAME          BLANK   
ROWS
 N  OBJROW
 L  R0000000
 L  R0000001
 L  R0000002
 L  R0000003
COLUMNS
    C0000000  OBJROW    9.             R0000000  6.          
    C0000000  R0000002   -1.        
    C0000001  OBJROW    5.             R0000000  3.          
    C0000001  R0000003   -1.        
    C0000002  OBJROW    6.             R0000000  5.          
    C0000002  R0000001  1.             R0000002  1.          
    C0000003  OBJROW    4.             R0000000  2.          
    C0000003  R0000001  1.             R0000003  1.          
RHS
    RHS       R0000000  9.             R0000001  1.          
BOUNDS
 UP BOUND     C0000000  1.          
 UP BOUND     C0000001  1.          
 UP BOUND     C0000002  1.          
 UP BOUND     C0000003  1.          
ENDATA
